191 300 293 123 47 209 115 147 222 153 245 95 146 10 96 54 148 269 207 5 234 265 77 174 71 229 96 50 266 219 42 223 61 35 46 107 295 212 6 216 65 250 62 262 11 158 67 158 126 274 163 111 238 291 284 60 219 132 161 184 102 203 159 162 289 256 21 35 167 26 2 283 27 63 297 37 220 63 246 98 88 160 208 78 150 244 189 121 127 50 4 228 4 214 141 292 221 161 26 88 186 79 122 264 141 118 300 113 233 246 262 72 105 169 149 7 164 38 127 290 87 182 269 90 96 110 133 16 22 210 155 260 288 277 223 180 94 223 292 78 220 253 150 24 174 298 82 37 87 208 79 225 90 47 14 237 156 198 4 178 107 211 189 146 187 111 26 32 33 17 110 252 22 11 28 195 60 109 283 147 69 61 71 210 108 137 146 15 34 201 244 193 111 